SCIP Status        : solving was interrupted [time limit reached]
Total Time         :    3600.01
  solving          :    3600.00
  presolving       :       0.41 (included in solving)
  reading          :       0.01
  copying          :       1.89 (41 #copies) (minimal 0.00, maximal 0.18, average 0.05)
Original Problem   :
  Problem name     : bbbenchmark/pw05_100.2.cut
  Variables        : 101 (100 binary, 0 integer, 0 implicit integer, 1 continuous)
  Constraints      : 1 initial, 1 maximal
  Objective        : minimize, 1 non-zeros (abs.min = 1, abs.max = 1)
Presolved Problem  :
  Problem name     : t_bbbenchmark/pw05_100.2.cut
  Variables        : 1915 (100 binary, 0 integer, 1801 implicit integer, 14 continuous)
  Constraints      : 1841 initial, 11842 maximal
  Objective        : minimize, 1 non-zeros (abs.min = 1, abs.max = 1)
  Nonzeros         : 8731 constraint, 202 clique table
Presolvers         :   ExecTime  SetupTime  Calls  FixedVars   AggrVars   ChgTypes  ChgBounds   AddHoles    DelCons    AddCons   ChgSides   ChgCoefs
  boundshift       :       0.00       0.00      0          0          0          0          0          0          0          0          0          0
  convertinttobin  :       0.00       0.00      0          0          0          0          0          0          0          0          0          0
  domcol           :       0.00       0.00      1          0          0          0          0          0          0          0          0          0
  dualagg          :       0.00       0.00      0          0          0          0          0          0          0          0          0          0
  dualcomp         :       0.00       0.00      1          0          0          0          0          0          0          0          0          0
  dualinfer        :       0.00       0.00      0          0          0          0          0          0          0          0          0          0
  dualsparsify     :       0.00       0.00      1          0          0          0          0          0          0          0          0          0
  gateextraction   :       0.00       0.00      0          0          0          0          0          0          0          0          0          0
  implics          :       0.00       0.00      2          0          0          0          0          0          0          0          0          0
  inttobinary      :       0.00       0.00      0          0          0          0          0          0          0          0          0          0
  qpkktref         :       0.00       0.00      0          0          0          0          0          0          0          0          0          0
  redvub           :       0.00       0.00      0          0          0          0          0          0          0          0          0          0
  sparsify         :       0.00       0.00      1          0          0          0          0          0          0          0          0          0
  stuffing         :       0.00       0.00      0          0          0          0          0          0          0          0          0          0
  trivial          :       0.00       0.00      4          0          0          0          0          0          0          0          0          0
  tworowbnd        :       0.00       0.00      0          0          0          0          0          0          0          0          0          0
  dualfix          :       0.00       0.00      4          0          0          0          0          0          0          0          0          0
  genvbounds       :       0.00       0.00      0          0          0          0          0          0          0          0          0          0
  probing          :       0.26       0.00      1          0          0          0          0          0          0          0          0          0
  pseudoobj        :       0.00       0.00      1          0          0          0          1          0          0          0          0          0
  symmetry         :       0.00       0.00      0          0          0          0          0          0          0          0          0          0
  vbounds          :       0.00       0.00      1          0          0          0          0          0          0          0          0          0
  varbound         :       0.00       0.00      2          0          0          0          0          0          0          0          0          0
  and              :       0.01       0.00      2          0          0          0          0          0          0          0          0          0
  linear           :       0.00       0.00      2          0          0          0          0          0          0          0          0          0
  logicor          :       0.00       0.00      0          0          0          0          0          0          0          0          0          0
  bounddisjunction :       0.00       0.00      0          0          0          0          0          0          0          0          0          0
  nonlinear        :       0.14       0.01      5          0          0          0          1          0          0       1840          0          0
  benders          :       0.00       0.00      0          0          0          0          0          0          0          0          0          0
  components       :       0.00       0.00      1          0          0          0          0          0          0          0          0          0
  root node        :          -          -      -          0          -          -         16          -          -          -          -          -
Constraints        :     Number  MaxNumber  #Separate #Propagate    #EnfoLP    #EnfoRelax  #EnfoPS    #Check   #ResProp    Cutoffs    DomReds       Cuts    Applied      Conss   Children
  benderslp        :          0          0          0          0      58690          0          0      10217          0          0          0          0          0          0          0
  integral         :          0          0          0          0      58690          0          0      10217          0          0        796          0          0        418     116818
  varbound         :         13         13         74     480814          0          0          0        100          0          0      36064          0          0          0          0
  and              :       1801       1801      78956     538734          4          0          0         98     427880         10     682321      18087      15816          0          0
  linear           :         27+        46         74     538759          4          0          0         96        331          3     167384          0          0          0          0
  logicor          :          0+      9921          0      74990          0          0          0          0        148        273         63          0          0          0          0
  bounddisjunction :          0+       144          0      29341          0          0          0          0          1         10          6          0          0          0          0
  benders          :          0          0          0          0          4          0          0         44          0          0          0          0          0          0          0
  countsols        :          0          0          0          0          4          0          0         44          0          0          0          0          0          0          0
  components       :          0          0          0          0          0          0          0          0          0          0          0          0          0          0          0
Constraint Timings :  TotalTime  SetupTime   Separate  Propagate     EnfoLP     EnfoPS     EnfoRelax   Check    ResProp    SB-Prop
  benderslp        :       0.08       0.00       0.00       0.00       0.08       0.00       0.00       0.00       0.00       0.00
  integral         :      46.65       0.00       0.00       0.00      46.61       0.00       0.00       0.04       0.00       0.00
  varbound         :       0.71       0.00       0.00       0.71       0.00       0.00       0.00       0.00       0.00       0.00
  and              :      82.62       0.00      54.54      27.10       0.00       0.00       0.00       0.02       0.33       0.63
  linear           :       2.83       0.00       0.12       2.61       0.00       0.00       0.00       0.01       0.00       0.09
  logicor          :       8.52       0.00       0.00       8.51       0.00       0.00       0.00       0.00       0.00       0.01
  bounddisjunction :       0.30       0.00       0.00       0.30       0.00       0.00       0.00       0.00       0.00       0.00
  benders          :       0.00       0.00       0.00       0.00       0.00       0.00       0.00       0.00       0.00       0.00
  countsols        :       0.00       0.00       0.00       0.00       0.00       0.00       0.00       0.00       0.00       0.00
  components       :       0.13       0.00       0.00       0.13       0.00       0.00       0.00       0.00       0.00       0.00
Propagators        : #Propagate   #ResProp    Cutoffs    DomReds
  dualfix          :          4          0          0          0
  genvbounds       :          0          0          0          0
  nlobbt           :          0          0          0          0
  obbt             :          0          0          0          0
  probing          :          0          0          0          0
  pseudoobj        :     252017          0          0         18
  redcost          :     147205          0          0      53839
  rootredcost      :         17          0          0          0
  symmetry         :          0          0          0          0
  vbounds          :      68157          0          0          0
Propagator Timings :  TotalTime  SetupTime   Presolve  Propagate    ResProp    SB-Prop
  dualfix          :       0.00       0.00       0.00       0.00       0.00       0.00
  genvbounds       :       0.28       0.00       0.00       0.28       0.00       0.00
  nlobbt           :       0.00       0.00       0.00       0.00       0.00       0.00
  obbt             :       0.00       0.00       0.00       0.00       0.00       0.00
  probing          :       0.26       0.00       0.26       0.00       0.00       0.00
  pseudoobj        :       0.63       0.00       0.00       0.63       0.00       0.00
  redcost          :      10.73       0.00       0.00      10.72       0.00       0.01
  rootredcost      :       0.57       0.00       0.00       0.56       0.00       0.01
  symmetry         :       0.43       0.00       0.00       0.41       0.00       0.02
  vbounds          :       0.41       0.00       0.00       0.41       0.00       0.00
Conflict Analysis  :       Time      Calls    Success    DomReds  Conflicts   Literals    Reconvs ReconvLits   Dualrays   Nonzeros   LP Iters   (pool size: [10000,10000])
  propagation      :       0.00        293        206          -        251       56.1          0        0.0          -          -          -
  infeasible LP    :       0.04         10         10          -        424      147.1          0        0.0         53      110.5          0
  bound exceed. LP :      24.41       4994       4712          -     118111      103.9          0        0.0          0        0.0      58557
  strong branching :       0.00          0          0          -          0        0.0          0        0.0          -          -          0
  pseudo solution  :       0.00          0          0          -          0        0.0          0        0.0          -          -          -
  applied globally :       0.61          -          -          0      26323      120.1          -          -         53          -          -
  applied locally  :          -          -          -          0          0        0.0          -          -          0          -          -
Separators         :   ExecTime  SetupTime      Calls  RootCalls    Cutoffs    DomReds  FoundCuts ViaPoolAdd  DirectAdd    Applied ViaPoolApp  DirectApp      Conss
  cut pool         :       7.54          -      29095        100          -          -      53167    1753001          -          -          -          -          -    (maximal pool size:       3377)
  aggregation      :      74.53       0.00      10761         74          0          0       2505       1718          0        559        559          0          0
  > cmir           :          -          -          -          -          -          -          -       1686          0        550        550          0          -
  > flowcover      :          -          -          -          -          -          -          -         32          0          9          9          0          -
  > knapsackcover  :          -          -          -          -          -          -          -          0          0          0          0          0          -
  cgmip            :       0.00       0.00          0          0          0          0          0          0          0          0          0          0          0
  clique           :       0.00       0.00         74         74          0          0          0          0          0          0          0          0          0
  closecuts        :       0.00       0.00          0          0          0          0          0          0          0          0          0          0          0
  convexproj       :       0.00       0.00          0          0          0          0          0          0          0          0          0          0          0
  disjunctive      :       0.00       0.00          0          0          0          0          0          0          0          0          0          0          0
  eccuts           :       0.00       0.00          0          0          0          0          0          0          0          0          0          0          0
  gauge            :       0.00       0.00          0          0          0          0          0          0          0          0          0          0          0
  gomory           :       0.00       0.00          0          0          0          0          0          0          0          0          0          0          0
  > gomorymi       :          -          -          -          -          -          -          -          0          0          0          0          0          -
  > strongcg       :          -          -          -          -          -          -          -          0          0          0          0          0          -
  impliedbounds    :       0.82       0.00      10761         74          0          0        129         21          0         15         15          0          0
  interlattice     :       0.33       0.00         49         49          0          0         49          0         49         47          0         47          0
  interminor       :       0.00       0.00          0          0          0          0          0          0          0          0          0          0          0
  intersub         :       0.00       0.00          0          0          0          0          0          0          0          0          0          0          0
  intobj           :       0.00       0.00          0          0          0          0          0          0          0          0          0          0          0
  mcf              :       0.00       0.00          1          1          0          0          0          0          0          0          0          0          0
  minor            :       0.01       0.00          0          0          0          0          0          0          0          0          0          0          0
  mixing           :       0.03       0.00      10761         74          0          0          0          0          0          0          0          0          0
  oddcycle         :       0.00       0.00          0          0          0          0          0          0          0          0          0          0          0
  rapidlearning    :       0.00       0.00          0          0          0          0          0          0          0          0          0          0          0
  rlt              :       0.00       0.00         10         10          0          0          0          0          0          0          0          0          0
  zerohalf         :     101.58       0.00       9678         20          0          0      50534    1751262          1     173827     173827          0          0
Cutselectors       :   ExecTime  SetupTime      Calls  RootCalls   Selected     Forced   Filtered  RootSelec   RootForc   RootFilt 
  hybrid           :       2.08       0.00      21549         74     190264          0    1580874        254          0         13
Pricers            :   ExecTime  SetupTime      Calls       Vars
  problem variables:       0.00          -          0          0
Branching Rules    :   ExecTime  SetupTime   BranchLP  BranchExt   BranchPS    Cutoffs    DomReds       Cuts      Conss   Children
  allfullstrong    :       0.00       0.00          0          0          0          0          0          0          0          0
  cloud            :       0.00       0.00          0          0          0          0          0          0          0          0
  distribution     :       0.00       0.00          0          0          0          0          0          0          0          0
  fullstrong       :       0.00       0.00          0          0          0          0          0          0          0          0
  inference        :       0.00       0.00          0          0          0          0          0          0          0          0
  leastinf         :       0.00       0.00          0          0          0          0          0          0          0          0
  lookahead        :       0.00       0.00          0          0          0          0          0          0          0          0
  mostinf          :       0.00       0.00          0          0          0          0          0          0          0          0
  multaggr         :       0.00       0.00          0          0          0          0          0          0          0          0
  nodereopt        :       0.00       0.00          0          0          0          0          0          0          0          0
  pscost           :       0.00       0.00          0          0          0          0          0          0          0          0
  random           :       0.00       0.00          0          0          0          0          0          0          0          0
  relpscost        :      46.46       0.00      58686          0          0          0        796          0        435     116818
  vanillafullstrong:       0.00       0.00          0          0          0          0          0          0          0          0
Primal Heuristics  :   ExecTime  SetupTime      Calls      Found       Best
  LP solutions     :       0.00          -          -          4          4
  relax solutions  :       0.00          -          -          0          0
  pseudo solutions :       0.00          -          -          0          0
  strong branching :       0.04          -          -          0          0
  actconsdiving    :       0.00       0.00          0          0          0
  adaptivediving   :       4.73       0.00         30          0          0
  alns             :       5.05       0.00         20         10         10
  bound            :       0.00       0.00          0          0          0
  clique           :       0.01       0.00          1          0          0
  coefdiving       :       0.00       0.00          0          0          0
  completesol      :       0.00       0.00          0          0          0
  conflictdiving   :      60.36       0.00        422          0          0
  crossover        :       3.92       0.00          5          1          1
  dins             :       0.00       0.00          0          0          0
  distributiondivin:      90.97       0.00        377          0          0
  dps              :       0.00       0.00          0          0          0
  dualval          :       0.00       0.00          0          0          0
  farkasdiving     :       0.01       0.00          0          0          0
  feaspump         :       0.13       0.00          1          1          1
  fixandinfer      :       0.00       0.00          0          0          0
  fracdiving       :      80.39       0.00        421          0          0
  gins             :       0.05       0.00          0          0          0
  guideddiving     :      68.65       0.00        421          2          2
  indicator        :       0.08       0.00          0          0          0
  indicatordiving  :       0.00       0.00          0          0          0
  intdiving        :       0.00       0.00          0          0          0
  intshifting      :       0.54       0.00         59          0          0
  linesearchdiving :      60.51       0.00        422          0          0
  localbranching   :       0.00       0.00          0          0          0
  locks            :       0.01       0.00          1          0          0
  lpface           :       0.09       0.00          0          0          0
  mpec             :     127.39       0.00         11          2          2
  multistart       :       0.00       0.00          0          0          0
  mutation         :       0.00       0.00          0          0          0
  nlpdiving        :      16.92       0.00          7          0          0
  objpscostdiving  :     102.06       0.00         67         12          1
  octane           :       0.00       0.00          0          0          0
  ofins            :       0.08       0.00          0          0          0
  oneopt           :       0.10       0.00         25          0          0
  padm             :       0.00       0.00          0          0          0
  proximity        :       0.00       0.00          0          0          0
  pscostdiving     :      73.35       0.00        390          1          1
  randrounding     :       0.76       0.00      10170          0          0
  rens             :       0.00       0.00          0          0          0
  reoptsols        :       0.00       0.00          0          0          0
  repair           :       0.00       0.00          0          0          0
  rins             :       1.24       0.00         15          0          0
  rootsoldiving    :      53.18       0.00         33          2          0
  rounding         :       1.14       0.00       3912          0          0
  shiftandpropagate:       0.00       0.00          0          0          0
  shifting         :      66.16       0.00      12884          7          6
  simplerounding   :       0.09       0.00          0          0          0
  subnlp           :     122.29       0.00          0          0          0
  trivial          :       0.00       0.00          2          2          2
  trivialnegation  :       0.00       0.00          0          0          0
  trustregion      :       0.00       0.00          0          0          0
  trysol           :       0.14       0.00          0          0          0
  twoopt           :       0.00       0.00          0          0          0
  undercover       :       1.78       0.00          1          1          1
  vbounds          :       0.00       0.00          0          0          0
  veclendiving     :      59.41       0.00        422          0          0
  zeroobj          :       0.00       0.00          0          0          0
  zirounding       :       0.38       0.00       1000          0          0
  other solutions  :          -          -          -          0          -
Diving (single)    :      Calls      Nodes   LP Iters Backtracks  Conflicts   MinDepth   MaxDepth   AvgDepth  RoundSols  NLeafSols  MinSolDpt  MaxSolDpt  AvgSolDpt
  actconsdiving    :          0          -          -          -          -          -          -          -          -          -          -          -          -
  coefdiving       :          0          -          -          -          -          -          -          -          -          -          -          -          -
  conflictdiving   :        422      16397     457007        436      28298         49         76       58.7          0          -          -          -          -
  distributiondivin:        377      12802     547943        456      12868         44         76       53.3          0          -          -          -          -
  farkasdiving     :          0          -          -          -          -          -          -          -          -          -          -          -          -
  fracdiving       :        421      80920     544325        168       1951         51        678      213.0          0          -          -          -          -
  guideddiving     :        421      62463     485655         98       2035         54        547      169.5          0          2        109        115      112.0
  indicatordiving  :          0          -          -          -          -          -          -          -          -          -          -          -          -
  linesearchdiving :        422      16488     450739        465      23478         44         86       59.7          0          -          -          -          -
  pscostdiving     :        390      15454     559637        409      15067         45         82       59.8          0          1         82         82       82.0
  veclendiving     :        422      16832     437062        428      29332         47         82       60.2          0          -          -          -          -
Diving (adaptive)  :      Calls      Nodes   LP Iters Backtracks  Conflicts   MinDepth   MaxDepth   AvgDepth  RoundSols  NLeafSols  MinSolDpt  MaxSolDpt  AvgSolDpt
  actconsdiving    :          4        156       5917          4        110         51         57       54.0          0          -          -          -          -
  coefdiving       :          9        347      10027          8        554         45         66       56.7          0          -          -          -          -
  conflictdiving   :          0          -          -          -          -          -          -          -          -          -          -          -          -
  distributiondivin:          0          -          -          -          -          -          -          -          -          -          -          -          -
  farkasdiving     :          0          -          -          -          -          -          -          -          -          -          -          -          -
  fracdiving       :          1         46        402          0         22         78         78       78.0          0          -          -          -          -
  guideddiving     :          2        390       2873          0          0        202        215      208.5          0          -          -          -          -
  indicatordiving  :          0          -          -          -          -          -          -          -          -          -          -          -          -
  linesearchdiving :          5        192       5846          5        260         52         61       56.0          0          -          -          -          -
  pscostdiving     :          4        152       5102          4        163         57         68       61.2          0          -          -          -          -
  veclendiving     :          5        216       6105          6        412         55         65       60.8          0          -          -          -          -
Neighborhoods      :      Calls  SetupTime  SolveTime SolveNodes       Sols       Best       Exp3  EpsGreedy        UCB TgtFixRate  Opt  Inf Node Stal  Sol  Usr Othr Actv
  rens             :          1       0.05       0.01          5          0          0    0.00000   -1.00000    0.56479      0.700    0    1    0    0    0    0    0    1
  rins             :          2       0.07       0.96       1942          1          1    0.00000   -1.00000    0.50027      0.850    1    0    0    1    0    0    0    1
  mutation         :          9       1.29       1.58       1118          6          6    0.00000   -1.00000    0.57461      0.637    2    2    0    4    0    0    1    1
  localbranching   :          1       0.06       0.02         11          0          0    0.00000   -1.00000    0.55879      0.700    0    1    0    0    0    0    0    1
  crossover        :          4       0.29       0.28         74          3          3    0.00000   -1.00000    0.55256      0.522    0    2    0    1    1    0    0    1
  proximity        :          1       0.05       0.01         14          0          0    0.00000   -1.00000    0.55579      0.700    0    1    0    0    0    0    0    1
  zeroobjective    :          1       0.04       0.02         15          0          0    0.00000   -1.00000    0.55479      0.700    0    1    0    0    0    0    0    1
  dins             :          1       0.04       0.02          9          0          0    0.00000   -1.00000    0.56079      0.700    0    1    0    0    0    0    0    1
  trustregion      :          0       0.00       0.00          0          0          0    0.00000   -1.00000    1.00000      0.900    0    0    0    0    0    0    0    0
Expressions        :   #IntEval  IntEvalTi   #RevProp  RevPropTi    DomReds    Cutoffs  #Estimate  EstimTime  Branching  #Simplify SimplifyTi Simplified
  pow              :          0       0.00          0       0.00          0          0          0       0.00          0          0       0.00          0
  prod             :       9900       0.00          0       0.00          0          0          0       0.00          0       6751       0.01          0
  sum              :          8       0.00          2       0.00          0          0          0       0.00          0          3       0.03          2
  var              :       6554       0.00          0       0.00          0          0          0       0.00          0      15619       0.00          0
  varidx           :          0       0.00          0       0.00          0          0          0       0.00          0          0       0.00          0
LP                 :       Time      Calls Iterations  Iter/call   Iter/sec  Time-0-It Calls-0-It    ItLimit
  primal LP        :     116.28      10347          0       0.00       0.00     116.22      10347
  dual LP          :    2019.95     120308   10654260      95.08    5274.52       3.90       8256
  lex dual LP      :       0.00          0          0       0.00          -
  barrier LP       :       0.00          0          0       0.00          -       0.00          0
  resolve instable :       0.00          0          0       0.00          -
  diving/probing LP:     557.30      13580    4216076     310.46    7565.18
  strong branching :      23.98       1687     203768     120.79    8497.41          -          -        402
    (at root node) :          -         20       3472     173.60          -
  conflict analysis:      11.21       5914      58557       9.90    5223.64
NLP relaxation     :
  solve time       :      16.28 (18 calls)
  convexity        :  nonconvex (40 linear rows, 0 convex ineq., 0 nonconvex ineq., 1801 nonlinear eq. or two-sided ineq.)
NLP Solvers        :  #Problems  ProblemTi    #Solves  SolveTime      #Iter  Time/Iter      #Okay #TimeLimit #IterLimit #LObjLimit #Interrupt  #NumError #EvalError  #OutOfMem #LicenseEr #OtherTerm   #GlobOpt    #LocOpt  #Feasible #LocInfeas #GlobInfea #Unbounded   #Unknown
  ipopt            :         12       5.49         46     149.43       1688       0.09         44          0          2          0          0          0          0          0          0          0          0         26          0         13          0          0          7
B&B Tree           :
  number of runs   :          1
  nodes            :      90271 (58409 internal, 31862 leaves)
  feasible leaves  :          4
  infeas. leaves   :         19
  objective leaves :      31838
  nodes (total)    :      90271 (58409 internal, 31862 leaves)
  nodes left       :      26246
  max depth        :         60
  max depth (total):         60
  backtracks       :      21411 (23.7%)
  early backtracks :          0 (0.0%)
  nodes exc. ref.  :          0 (0.0%)
  delayed cutoffs  :          7
  repropagations   :        134 (637 domain reductions, 4 cutoffs)
  avg switch length:       6.29
  switching time   :     142.93
Estim. Tree Size   :     181146
Estimation Tree    : 116819 nodes (90573 visited, 58409 internal, 32164 leaves, 26246 open), weight: 0.0000 completed 0.1042
Estimations        :      estim      value      trend resolution     smooth
  wbe              : 5870689903970          -          -          -          -
  tree-profile     :         -1          -          -          -          -
  gap              :     906846    0.70322    0.00002         32     876333
  tree-weight      :     181146    0.00000    0.00000         32     181058
  leaf-frequency   :     181146    0.35511   -0.00017         32     181058
  ssg              :     677912    0.83553   -0.00009         32     649570
  open-nodes       :     181146 26246.00000  122.89453         32     181058
Root Node          :
  First LP value   : -5.45898989898991e+00
  First LP Iters   :       1707 (11380.00 Iter/sec)
  First LP Time    :       0.15
  Final Dual Bound : -5.22355218855220e+00
  Final Root Iters :       2630
  Root LP Estimate : -1.86341145724246e+00
Solution           :
  Solutions found  :         45 (31 improvements)
  First Solution   : +1.00000000000000e+05   (in run 1, after 0 nodes, 0.04 seconds, depth 0, found by <trivial>)
  Gap First Sol.   :   infinite
  Gap Last Sol.    :      42.67 %
  Primal Bound     : -3.21454545454545e+00   (in run 1, after 73919 nodes, 2293.35 seconds, depth 40, found by <alns>)
  Dual Bound       : -4.57116227205199e+00
  Gap              :      42.20 %
Integrals          :      Total       Avg%
  primal-dual      :  116574.31      32.38
  primal-ref       :          -          - (not evaluated)
  dual-ref         :          -          - (not evaluated)
